(declare-const x0 Real)
(declare-const x1 Real)
(declare-const x2 Real)
(declare-const x3 Real)
(declare-const x4 Real)
(declare-const x5 Real)
(declare-const x6 Real)
(declare-const x7 Real)
(declare-const x8 Real)
(declare-const x9 Real)

(assert (= (+ (^ x0 2.0) (* 0.750000 (^ x1 2.0)) (* 0.600000 (^ x2 2.0)) (* 0.500000 (^ x3 2.0)) (* 0.428571 (^ x4 2.0)) (* 0.375000 (^ x5 2.0)) (* 0.333333 (^ x6 2.0)) (* 0.300000 (^ x7 2.0)) (* 0.272727 (^ x8 2.0)) (* 0.250000 (^ x9 2.0))) 4.0))
(assert (= (+ (* 0.500000 x0) (* 1.0 x1) (* 1.0 x2) (* 1.0 x3) (* 1.0 x4) (* 1.0 x5) (* 1.0 x6) (* 1.0 x7) (* 1.0 x8) (* 1.0 x9)) 1.0))
(assert (= (+ (* 1.0 x0) (* 0.500000 x1) (* 1.0 x2) (* 1.0 x3) (* 1.0 x4) (* 1.0 x5) (* 1.0 x6) (* 1.0 x7) (* 1.0 x8) (* 1.0 x9)) 1.0))
(assert (= (+ (* 1.0 x0) (* 1.0 x1) (* 0.500000 x2) (* 1.0 x3) (* 1.0 x4) (* 1.0 x5) (* 1.0 x6) (* 1.0 x7) (* 1.0 x8) (* 1.0 x9)) 1.0))
(assert (= (+ (* 1.0 x0) (* 1.0 x1) (* 1.0 x2) (* 0.500000 x3) (* 1.0 x4) (* 1.0 x5) (* 1.0 x6) (* 1.0 x7) (* 1.0 x8) (* 1.0 x9)) 1.0))
(assert (= (+ (* 1.0 x0) (* 1.0 x1) (* 1.0 x2) (* 1.0 x3) (* 0.500000 x4) (* 1.0 x5) (* 1.0 x6) (* 1.0 x7) (* 1.0 x8) (* 1.0 x9)) 1.0))
(assert (= (+ (* 1.0 x0) (* 1.0 x1) (* 1.0 x2) (* 1.0 x3) (* 1.0 x4) (* 0.500000 x5) (* 1.0 x6) (* 1.0 x7) (* 1.0 x8) (* 1.0 x9)) 1.0))
(assert (= (+ (* 1.0 x0) (* 1.0 x1) (* 1.0 x2) (* 1.0 x3) (* 1.0 x4) (* 1.0 x5) (* 0.500000 x6) (* 1.0 x7) (* 1.0 x8) (* 1.0 x9)) 1.0))
(assert (= (+ (* 1.0 x0) (* 1.0 x1) (* 1.0 x2) (* 1.0 x3) (* 1.0 x4) (* 1.0 x5) (* 1.0 x6) (* 0.500000 x7) (* 1.0 x8) (* 1.0 x9)) 1.0))

(minimize
	(- (+ (^ x0 2.0) (^ x1 2.0) (^ x2 2.0) (^ x3 2.0) (^ x4 2.0) (^ x5 2.0) (^ x6 2.0) (^ x7 2.0) (^ x8 2.0) (^ x9 2.0)))
)
(check-sat)
(get-objectives)
(exit)

